10 10 4

0 385 348 455 311 68 132 69 281 133 
120 0 213 312 317 426 436 94 467 269 
173 86 0 88 345 90 136 216 367 248 
465 113 113 0 228 204 167 389 465 186 
472 241 173 311 0 311 336 330 128 262 
472 379 228 240 258 0 472 279 309 61 
365 475 135 319 195 405 0 138 373 108 
255 468 73 147 439 264 271 0 457 281 
313 286 115 74 257 200 460 203 0 408 
187 188 216 405 259 397 490 77 91 0 

102.9 0 5
102.9 1 3
102.9 2 7
102.9 3 5
102.9 4 6
102.9 5 1
102.9 6 8
102.9 7 1
102.9 8 2
102.9 9 0

